\ Model GR_Model_SN
\ LP format - for model browsing. Use MPS format to capture full model detail.
Maximize
  alpha
Subject To
 name1[0]: 1.138173634552519 x[0] - x[27] - x[32] - x[34] - x[36] + alpha
   + 1000 a[0] <= 1000
 name1[1]: - x[0] + 1.138173634552519 x[1] + alpha + 1000 a[1] <= 1000
 name1[2]: - x[1] + 1.138173634552519 x[2] + alpha + 1000 a[2] <= 1000
 name1[3]: - x[2] - x[3] + 1.138173634552519 x[4] - x[29] - x[31] - x[35]
   - x[36] + alpha + 1000 a[3] <= 1000
 name1[4]: 1.138173634552519 x[3] - x[30] - x[33] - x[35] + alpha
   + 1000 a[4] <= 1000
 name1[5]: - x[5] + 1.138173634552519 x[7] + 1.138173634552519 x[8] + alpha
   + 1000 a[5] <= 1000
 name1[6]: - x[4] + 1.138173634552519 x[5] + 1.138173634552519 x[6] - x[28]
   - x[31] + alpha + 1000 a[6] <= 1000
 name1[7]: - x[6] + 1.138173634552519 x[9] - x[28] - x[33] - x[34] + alpha
   + 1000 a[7] <= 1000
 name1[8]: - x[10] + 1.138173634552519 x[12] + 1.138173634552519 x[13]
   - x[30] - x[32] + alpha + 1000 a[8] <= 1000
 name1[9]: - x[7] + 1.138173634552519 x[10] + alpha + 1000 a[9] <= 1000
 name1[10]: - x[8] + 1.138173634552519 x[36] + alpha + 1000 a[10] <= 1000
 name1[11]: - x[9] + 1.138173634552519 x[11] - x[29] + alpha + 1000 a[11]
   <= 1000
 name1[12]: - x[11] + 1.138173634552519 x[14] + 1.138173634552519 x[15]
   + alpha + 1000 a[12] <= 1000
 name1[13]: - x[12] + 1.138173634552519 x[16] + 1.138173634552519 x[34]
   + alpha + 1000 a[13] <= 1000
 name1[14]: - x[16] + 1.138173634552519 x[18] + 1.138173634552519 x[19]
   + alpha + 1000 a[14] <= 1000
 name1[15]: - x[13] - x[14] + 1.138173634552519 x[17] + alpha + 1000 a[15]
   <= 1000
 name1[16]: - x[17] + 1.138173634552519 x[20] - x[27] + alpha + 1000 a[16]
   <= 1000
 name1[17]: - x[15] + 1.138173634552519 x[35] + alpha + 1000 a[17] <= 1000
 name1[18]: - x[18] + 1.138173634552519 x[31] + alpha + 1000 a[18] <= 1000
 name1[19]: - x[19] + 1.138173634552519 x[21] + 1.138173634552519 x[32]
   + alpha + 1000 a[19] <= 1000
 name1[20]: - x[21] + 1.138173634552519 x[23] + 1.138173634552519 x[24]
   + alpha + 1000 a[20] <= 1000
 name1[21]: - x[20] + 1.138173634552519 x[22] + 1.138173634552519 x[33]
   + alpha + 1000 a[21] <= 1000
 name1[22]: - x[22] + 1.138173634552519 x[25] + 1.138173634552519 x[26]
   + alpha + 1000 a[22] <= 1000
 name1[23]: - x[23] + 1.138173634552519 x[27] + alpha + 1000 a[23] <= 1000
 name1[24]: - x[24] + 1.138173634552519 x[28] + alpha + 1000 a[24] <= 1000
 name1[25]: - x[25] + 1.138173634552519 x[29] + alpha + 1000 a[25] <= 1000
 name1[26]: - x[26] + 1.138173634552519 x[30] + alpha + 1000 a[26] <= 1000
 name2[0]: x[0] - a[0] >= 0
 name2[1]: x[1] - a[1] >= 0
 name2[2]: x[2] - a[2] >= 0
 name2[3]: x[4] - a[3] >= 0
 name2[4]: x[3] - a[4] >= 0
 name2[5]: x[7] + x[8] - a[5] >= 0
 name2[6]: x[5] + x[6] - a[6] >= 0
 name2[7]: x[9] - a[7] >= 0
 name2[8]: x[12] + x[13] - a[8] >= 0
 name2[9]: x[10] - a[9] >= 0
 name2[10]: x[36] - a[10] >= 0
 name2[11]: x[11] - a[11] >= 0
 name2[12]: x[14] + x[15] - a[12] >= 0
 name2[13]: x[16] + x[34] - a[13] >= 0
 name2[14]: x[18] + x[19] - a[14] >= 0
 name2[15]: x[17] - a[15] >= 0
 name2[16]: x[20] - a[16] >= 0
 name2[17]: x[35] - a[17] >= 0
 name2[18]: x[31] - a[18] >= 0
 name2[19]: x[21] + x[32] - a[19] >= 0
 name2[20]: x[23] + x[24] - a[20] >= 0
 name2[21]: x[22] + x[33] - a[21] >= 0
 name2[22]: x[25] + x[26] - a[22] >= 0
 name2[23]: x[27] - a[23] >= 0
 name2[24]: x[28] - a[24] >= 0
 name2[25]: x[29] - a[25] >= 0
 name2[26]: x[30] - a[26] >= 0
 name3[0]: y[0] - z[0] - z[27] - z[32] - z[34] - z[36] <= 0
 name3[1]: y[1] - z[0] - z[1] <= 0
 name3[2]: y[2] - z[1] - z[2] <= 0
 name3[3]: y[3] - z[2] - z[3] - z[4] - z[29] - z[31] - z[35] - z[36] <= 0
 name3[4]: y[4] - z[3] - z[30] - z[33] - z[35] <= 0
 name3[5]: y[5] - z[5] - z[7] - z[8] <= 0
 name3[6]: y[6] - z[4] - z[5] - z[6] - z[28] - z[31] <= 0
 name3[7]: y[7] - z[6] - z[9] - z[28] - z[33] - z[34] <= 0
 name3[8]: y[8] - z[10] - z[12] - z[13] - z[30] - z[32] <= 0
 name3[9]: y[9] - z[7] - z[10] <= 0
 name3[10]: y[10] - z[8] - z[36] <= 0
 name3[11]: y[11] - z[9] - z[11] - z[29] <= 0
 name3[12]: y[12] - z[11] - z[14] - z[15] <= 0
 name3[13]: y[13] - z[12] - z[16] - z[34] <= 0
 name3[14]: y[14] - z[16] - z[18] - z[19] <= 0
 name3[15]: y[15] - z[13] - z[14] - z[17] <= 0
 name3[16]: y[16] - z[17] - z[20] - z[27] <= 0
 name3[17]: y[17] - z[15] - z[35] <= 0
 name3[18]: y[18] - z[18] - z[31] <= 0
 name3[19]: y[19] - z[19] - z[21] - z[32] <= 0
 name3[20]: y[20] - z[21] - z[23] - z[24] <= 0
 name3[21]: y[21] - z[20] - z[22] - z[33] <= 0
 name3[22]: y[22] - z[22] - z[25] - z[26] <= 0
 name3[23]: y[23] - z[23] - z[27] <= 0
 name3[24]: y[24] - z[24] - z[28] <= 0
 name3[25]: y[25] - z[25] - z[29] <= 0
 name3[26]: y[26] - z[26] - z[30] <= 0
 name4[0]: a[0] - z[27] - z[32] - z[34] - z[36] <= 0
 name4[1]: a[1] - z[0] <= 0
 name4[2]: a[2] - z[1] <= 0
 name4[3]: a[3] - z[2] - z[3] - z[29] - z[31] - z[35] - z[36] <= 0
 name4[4]: a[4] - z[30] - z[33] - z[35] <= 0
 name4[5]: a[5] - z[5] <= 0
 name4[6]: a[6] - z[4] - z[28] - z[31] <= 0
 name4[7]: a[7] - z[6] - z[28] - z[33] - z[34] <= 0
 name4[8]: a[8] - z[10] - z[30] - z[32] <= 0
 name4[9]: a[9] - z[7] <= 0
 name4[10]: a[10] - z[8] <= 0
 name4[11]: a[11] - z[9] - z[29] <= 0
 name4[12]: a[12] - z[11] <= 0
 name4[13]: a[13] - z[12] <= 0
 name4[14]: a[14] - z[16] <= 0
 name4[15]: a[15] - z[13] - z[14] <= 0
 name4[16]: a[16] - z[17] - z[27] <= 0
 name4[17]: a[17] - z[15] <= 0
 name4[18]: a[18] - z[18] <= 0
 name4[19]: a[19] - z[19] <= 0
 name4[20]: a[20] - z[21] <= 0
 name4[21]: a[21] - z[20] <= 0
 name4[22]: a[22] - z[22] <= 0
 name4[23]: a[23] - z[23] <= 0
 name4[24]: a[24] - z[24] <= 0
 name4[25]: a[25] - z[25] <= 0
 name4[26]: a[26] - z[26] <= 0
 name5[0]: a[0] - z[0] <= 0
 name5[1]: a[1] - z[1] <= 0
 name5[2]: a[2] - z[2] <= 0
 name5[3]: a[3] - z[4] <= 0
 name5[4]: a[4] - z[3] <= 0
 name5[5]: a[5] - z[7] - z[8] <= 0
 name5[6]: a[6] - z[5] - z[6] <= 0
 name5[7]: a[7] - z[9] <= 0
 name5[8]: a[8] - z[12] - z[13] <= 0
 name5[9]: a[9] - z[10] <= 0
 name5[10]: a[10] - z[36] <= 0
 name5[11]: a[11] - z[11] <= 0
 name5[12]: a[12] - z[14] - z[15] <= 0
 name5[13]: a[13] - z[16] - z[34] <= 0
 name5[14]: a[14] - z[18] - z[19] <= 0
 name5[15]: a[15] - z[17] <= 0
 name5[16]: a[16] - z[20] <= 0
 name5[17]: a[17] - z[35] <= 0
 name5[18]: a[18] - z[31] <= 0
 name5[19]: a[19] - z[21] - z[32] <= 0
 name5[20]: a[20] - z[23] - z[24] <= 0
 name5[21]: a[21] - z[22] - z[33] <= 0
 name5[22]: a[22] - z[25] - z[26] <= 0
 name5[23]: a[23] - z[27] <= 0
 name5[24]: a[24] - z[28] <= 0
 name5[25]: a[25] - z[29] <= 0
 name5[26]: a[26] - z[30] <= 0
 name6[0]: - y[0] + a[0] <= 0
 name6[1]: - y[1] + a[1] <= 0
 name6[2]: - y[2] + a[2] <= 0
 name6[3]: - y[3] + a[3] <= 0
 name6[4]: - y[4] + a[4] <= 0
 name6[5]: - y[5] + a[5] <= 0
 name6[6]: - y[6] + a[6] <= 0
 name6[7]: - y[7] + a[7] <= 0
 name6[8]: - y[8] + a[8] <= 0
 name6[9]: - y[9] + a[9] <= 0
 name6[10]: - y[10] + a[10] <= 0
 name6[11]: - y[11] + a[11] <= 0
 name6[12]: - y[12] + a[12] <= 0
 name6[13]: - y[13] + a[13] <= 0
 name6[14]: - y[14] + a[14] <= 0
 name6[15]: - y[15] + a[15] <= 0
 name6[16]: - y[16] + a[16] <= 0
 name6[17]: - y[17] + a[17] <= 0
 name6[18]: - y[18] + a[18] <= 0
 name6[19]: - y[19] + a[19] <= 0
 name6[20]: - y[20] + a[20] <= 0
 name6[21]: - y[21] + a[21] <= 0
 name6[22]: - y[22] + a[22] <= 0
 name6[23]: - y[23] + a[23] <= 0
 name6[24]: - y[24] + a[24] <= 0
 name6[25]: - y[25] + a[25] <= 0
 name6[26]: - y[26] + a[26] <= 0
 name7[0]: - a[1] + z[0] <= 0
 name7[1]: - a[2] + z[1] <= 0
 name7[2]: - a[3] + z[2] <= 0
 name7[3]: - a[3] + z[3] <= 0
 name7[4]: - a[6] + z[4] <= 0
 name7[5]: - a[5] + z[5] <= 0
 name7[6]: - a[7] + z[6] <= 0
 name7[7]: - a[9] + z[7] <= 0
 name7[8]: - a[10] + z[8] <= 0
 name7[9]: - a[11] + z[9] <= 0
 name7[10]: - a[8] + z[10] <= 0
 name7[11]: - a[12] + z[11] <= 0
 name7[12]: - a[13] + z[12] <= 0
 name7[13]: - a[15] + z[13] <= 0
 name7[14]: - a[15] + z[14] <= 0
 name7[15]: - a[17] + z[15] <= 0
 name7[16]: - a[14] + z[16] <= 0
 name7[17]: - a[16] + z[17] <= 0
 name7[18]: - a[18] + z[18] <= 0
 name7[19]: - a[19] + z[19] <= 0
 name7[20]: - a[21] + z[20] <= 0
 name7[21]: - a[20] + z[21] <= 0
 name7[22]: - a[22] + z[22] <= 0
 name7[23]: - a[23] + z[23] <= 0
 name7[24]: - a[24] + z[24] <= 0
 name7[25]: - a[25] + z[25] <= 0
 name7[26]: - a[26] + z[26] <= 0
 name7[27]: - a[0] - a[16] + z[27] <= 0
 name7[28]: - a[6] - a[7] + z[28] <= 0
 name7[29]: - a[3] - a[11] + z[29] <= 0
 name7[30]: - a[4] - a[8] + z[30] <= 0
 name7[31]: - a[3] - a[6] + z[31] <= 0
 name7[32]: - a[0] - a[8] + z[32] <= 0
 name7[33]: - a[4] - a[7] + z[33] <= 0
 name7[34]: - a[0] - a[7] + z[34] <= 0
 name7[35]: - a[3] - a[4] + z[35] <= 0
 name7[36]: - a[0] - a[3] + z[36] <= 0
 name8[0]: - a[0] + z[0] <= 0
 name8[1]: - a[1] + z[1] <= 0
 name8[2]: - a[2] + z[2] <= 0
 name8[3]: - a[4] + z[3] <= 0
 name8[4]: - a[3] + z[4] <= 0
 name8[5]: - a[6] + z[5] <= 0
 name8[6]: - a[6] + z[6] <= 0
 name8[7]: - a[5] + z[7] <= 0
 name8[8]: - a[5] + z[8] <= 0
 name8[9]: - a[7] + z[9] <= 0
 name8[10]: - a[9] + z[10] <= 0
 name8[11]: - a[11] + z[11] <= 0
 name8[12]: - a[8] + z[12] <= 0
 name8[13]: - a[8] + z[13] <= 0
 name8[14]: - a[12] + z[14] <= 0
 name8[15]: - a[12] + z[15] <= 0
 name8[16]: - a[13] + z[16] <= 0
 name8[17]: - a[15] + z[17] <= 0
 name8[18]: - a[14] + z[18] <= 0
 name8[19]: - a[14] + z[19] <= 0
 name8[20]: - a[16] + z[20] <= 0
 name8[21]: - a[19] + z[21] <= 0
 name8[22]: - a[21] + z[22] <= 0
 name8[23]: - a[20] + z[23] <= 0
 name8[24]: - a[20] + z[24] <= 0
 name8[25]: - a[22] + z[25] <= 0
 name8[26]: - a[22] + z[26] <= 0
 name8[27]: - a[23] + z[27] <= 0
 name8[28]: - a[24] + z[28] <= 0
 name8[29]: - a[25] + z[29] <= 0
 name8[30]: - a[26] + z[30] <= 0
 name8[31]: - a[18] + z[31] <= 0
 name8[32]: - a[19] + z[32] <= 0
 name8[33]: - a[21] + z[33] <= 0
 name8[34]: - a[13] + z[34] <= 0
 name8[35]: - a[17] + z[35] <= 0
 name8[36]: - a[10] + z[36] <= 0
 name9[0]: x[0] - 1000 z[0] <= 0
 name9[1]: x[1] - 1000 z[1] <= 0
 name9[2]: x[2] - 1000 z[2] <= 0
 name9[3]: x[3] - 1000 z[3] <= 0
 name9[4]: x[4] - 1000 z[4] <= 0
 name9[5]: x[5] - 1000 z[5] <= 0
 name9[6]: x[6] - 1000 z[6] <= 0
 name9[7]: x[7] - 1000 z[7] <= 0
 name9[8]: x[8] - 1000 z[8] <= 0
 name9[9]: x[9] - 1000 z[9] <= 0
 name9[10]: x[10] - 1000 z[10] <= 0
 name9[11]: x[11] - 1000 z[11] <= 0
 name9[12]: x[12] - 1000 z[12] <= 0
 name9[13]: x[13] - 1000 z[13] <= 0
 name9[14]: x[14] - 1000 z[14] <= 0
 name9[15]: x[15] - 1000 z[15] <= 0
 name9[16]: x[16] - 1000 z[16] <= 0
 name9[17]: x[17] - 1000 z[17] <= 0
 name9[18]: x[18] - 1000 z[18] <= 0
 name9[19]: x[19] - 1000 z[19] <= 0
 name9[20]: x[20] - 1000 z[20] <= 0
 name9[21]: x[21] - 1000 z[21] <= 0
 name9[22]: x[22] - 1000 z[22] <= 0
 name9[23]: x[23] - 1000 z[23] <= 0
 name9[24]: x[24] - 1000 z[24] <= 0
 name9[25]: x[25] - 1000 z[25] <= 0
 name9[26]: x[26] - 1000 z[26] <= 0
 name9[27]: x[27] - 1000 z[27] <= 0
 name9[28]: x[28] - 1000 z[28] <= 0
 name9[29]: x[29] - 1000 z[29] <= 0
 name9[30]: x[30] - 1000 z[30] <= 0
 name9[31]: x[31] - 1000 z[31] <= 0
 name9[32]: x[32] - 1000 z[32] <= 0
 name9[33]: x[33] - 1000 z[33] <= 0
 name9[34]: x[34] - 1000 z[34] <= 0
 name9[35]: x[35] - 1000 z[35] <= 0
 name9[36]: x[36] - 1000 z[36] <= 0
 name10[0]: - x[0] + z[0] <= 0
 name10[1]: - x[1] + z[1] <= 0
 name10[2]: - x[2] + z[2] <= 0
 name10[3]: - x[3] + z[3] <= 0
 name10[4]: - x[4] + z[4] <= 0
 name10[5]: - x[5] + z[5] <= 0
 name10[6]: - x[6] + z[6] <= 0
 name10[7]: - x[7] + z[7] <= 0
 name10[8]: - x[8] + z[8] <= 0
 name10[9]: - x[9] + z[9] <= 0
 name10[10]: - x[10] + z[10] <= 0
 name10[11]: - x[11] + z[11] <= 0
 name10[12]: - x[12] + z[12] <= 0
 name10[13]: - x[13] + z[13] <= 0
 name10[14]: - x[14] + z[14] <= 0
 name10[15]: - x[15] + z[15] <= 0
 name10[16]: - x[16] + z[16] <= 0
 name10[17]: - x[17] + z[17] <= 0
 name10[18]: - x[18] + z[18] <= 0
 name10[19]: - x[19] + z[19] <= 0
 name10[20]: - x[20] + z[20] <= 0
 name10[21]: - x[21] + z[21] <= 0
 name10[22]: - x[22] + z[22] <= 0
 name10[23]: - x[23] + z[23] <= 0
 name10[24]: - x[24] + z[24] <= 0
 name10[25]: - x[25] + z[25] <= 0
 name10[26]: - x[26] + z[26] <= 0
 name10[27]: - x[27] + z[27] <= 0
 name10[28]: - x[28] + z[28] <= 0
 name10[29]: - x[29] + z[29] <= 0
 name10[30]: - x[30] + z[30] <= 0
 name10[31]: - x[31] + z[31] <= 0
 name10[32]: - x[32] + z[32] <= 0
 name10[33]: - x[33] + z[33] <= 0
 name10[34]: - x[34] + z[34] <= 0
 name10[35]: - x[35] + z[35] <= 0
 name10[36]: - x[36] + z[36] <= 0
 name11: a[0] + a[1] + a[2] + a[3] + a[4] + a[5] + a[6] + a[7] + a[8]
   + a[9] + a[10] + a[11] + a[12] + a[13] + a[14] + a[15] + a[16] + a[17]
   + a[18] + a[19] + a[20] + a[21] + a[22] + a[23] + a[24] + a[25] + a[26]
   >= 1
 name12: z[0] + z[1] + z[2] + z[3] + z[4] + z[5] + z[6] + z[7] + z[8]
   + z[9] + z[10] + z[11] + z[12] + z[13] + z[14] + z[15] + z[16] + z[17]
   + z[18] + z[19] + z[20] + z[21] + z[22] + z[23] + z[24] + z[25] + z[26]
   + z[27] + z[28] + z[29] + z[30] + z[31] + z[32] + z[33] + z[34] + z[35]
   + z[36] >= 1
Bounds
Binaries
 y[0] y[1] y[2] y[3] y[4] y[5] y[6] y[7] y[8] y[9] y[10] y[11] y[12] y[13]
 y[14] y[15] y[16] y[17] y[18] y[19] y[20] y[21] y[22] y[23] y[24] y[25]
 y[26] a[0] a[1] a[2] a[3] a[4] a[5] a[6] a[7] a[8] a[9] a[10] a[11] a[12]
 a[13] a[14] a[15] a[16] a[17] a[18] a[19] a[20] a[21] a[22] a[23] a[24]
 a[25] a[26] z[0] z[1] z[2] z[3] z[4] z[5] z[6] z[7] z[8] z[9] z[10] z[11]
 z[12] z[13] z[14] z[15] z[16] z[17] z[18] z[19] z[20] z[21] z[22] z[23]
 z[24] z[25] z[26] z[27] z[28] z[29] z[30] z[31] z[32] z[33] z[34] z[35]
 z[36]
End
